<?xml version="1.0" encoding="UTF-8"?><osil xmlns="os.optimizationservices.org"   xmlns:xsi="http://www.w3.org/2001/XMLSchema-instance" xsi:schemaLocation="os.optimizationservices.org http://www.optimizationservices.org/schemas/2.0/OSiL.xsd" ><instanceHeader><name>q_20_0_25_3</name></instanceHeader><instanceData><variables numberOfVariables="20"><var name="x1" ub="1"/><var name="x2" ub="1"/><var name="x3" ub="1"/><var name="x4" ub="1"/><var name="x5" ub="1"/><var name="x6" ub="1"/><var name="x7" ub="1"/><var name="x8" ub="1"/><var name="x9" ub="1"/><var name="x10" ub="1"/><var name="x11" ub="1"/><var name="x12" ub="1"/><var name="x13" ub="1"/><var name="x14" ub="1"/><var name="x15" ub="1"/><var name="x16" ub="1"/><var name="x17" ub="1"/><var name="x18" ub="1"/><var name="x19" ub="1"/><var name="x20" ub="1"/></variables><objectives numberOfObjectives="1"><obj maxOrMin="min" name="defObj_x21" numberOfObjCoef="20"><coef idx="0">-.5614</coef><coef idx="1">.5238</coef><coef idx="2">.8146</coef><coef idx="3">.1793</coef><coef idx="4">.7412</coef><coef idx="5">-.9228</coef><coef idx="6">.8761</coef><coef idx="7">-.9062</coef><coef idx="8">.7942</coef><coef idx="9">-.9605</coef><coef idx="10">.9985</coef><coef idx="11">.9604</coef><coef idx="12">.2233</coef><coef idx="13">.1751</coef><coef idx="14">.9245</coef><coef idx="15">.7868</coef><coef idx="16">-.5956</coef><coef idx="17">-.9745</coef><coef idx="18">-.49</coef><coef idx="19">.7809</coef></obj></objectives><quadraticCoefficients  numberOfQuadraticTerms="52" ><qTerm  idx="-1"  idxOne="0"  idxTwo="7"  coef="-.392"/><qTerm  idx="-1"  idxOne="0"  idxTwo="10"  coef="-.1915"/><qTerm  idx="-1"  idxOne="1"  idxTwo="4"  coef="-.7027"/><qTerm  idx="-1"  idxOne="1"  idxTwo="8"  coef=".9493"/><qTerm  idx="-1"  idxOne="1"  idxTwo="14"  coef="6.81e-2"/><qTerm  idx="-1"  idxOne="2"  idxTwo="5"  coef="1.2729"/><qTerm  idx="-1"  idxOne="2"  idxTwo="13"  coef=".3698"/><qTerm  idx="-1"  idxOne="2"  idxTwo="14"  coef="1.4515"/><qTerm  idx="-1"  idxOne="2"  idxTwo="15"  coef=".2078"/><qTerm  idx="-1"  idxOne="3"  idxTwo="6"  coef="-.6297"/><qTerm  idx="-1"  idxOne="3"  idxTwo="13"  coef="1.4895"/><qTerm  idx="-1"  idxOne="3"  idxTwo="16"  coef="1.8882"/><qTerm  idx="-1"  idxOne="4"  idxTwo="4"  coef="-1.1723"/><qTerm  idx="-1"  idxOne="4"  idxTwo="6"  coef="1.7946"/><qTerm  idx="-1"  idxOne="4"  idxTwo="9"  coef="-.2195"/><qTerm  idx="-1"  idxOne="4"  idxTwo="17"  coef="-.1889"/><qTerm  idx="-1"  idxOne="5"  idxTwo="6"  coef="-.2684"/><qTerm  idx="-1"  idxOne="5"  idxTwo="7"  coef="1.9947"/><qTerm  idx="-1"  idxOne="5"  idxTwo="13"  coef="1.5941"/><qTerm  idx="-1"  idxOne="5"  idxTwo="15"  coef="1.881"/><qTerm  idx="-1"  idxOne="6"  idxTwo="6"  coef=".7055"/><qTerm  idx="-1"  idxOne="6"  idxTwo="10"  coef="-1.0687"/><qTerm  idx="-1"  idxOne="6"  idxTwo="13"  coef=".5675"/><qTerm  idx="-1"  idxOne="6"  idxTwo="14"  coef="-1.367"/><qTerm  idx="-1"  idxOne="6"  idxTwo="17"  coef="1.3733"/><qTerm  idx="-1"  idxOne="6"  idxTwo="18"  coef=".8169"/><qTerm  idx="-1"  idxOne="7"  idxTwo="8"  coef="1.6889"/><qTerm  idx="-1"  idxOne="7"  idxTwo="12"  coef="-1.4524"/><qTerm  idx="-1"  idxOne="7"  idxTwo="14"  coef=".4882"/><qTerm  idx="-1"  idxOne="7"  idxTwo="16"  coef="1.4711"/><qTerm  idx="-1"  idxOne="7"  idxTwo="18"  coef="-1.6109"/><qTerm  idx="-1"  idxOne="8"  idxTwo="9"  coef=".4532"/><qTerm  idx="-1"  idxOne="8"  idxTwo="13"  coef="-.1908"/><qTerm  idx="-1"  idxOne="8"  idxTwo="14"  coef="-1.1303"/><qTerm  idx="-1"  idxOne="8"  idxTwo="15"  coef="-.1751"/><qTerm  idx="-1"  idxOne="8"  idxTwo="16"  coef="1.46"/><qTerm  idx="-1"  idxOne="8"  idxTwo="18"  coef=".669"/><qTerm  idx="-1"  idxOne="10"  idxTwo="12"  coef="-1.1536"/><qTerm  idx="-1"  idxOne="10"  idxTwo="15"  coef="-1.1369"/><qTerm  idx="-1"  idxOne="10"  idxTwo="16"  coef="1.1057"/><qTerm  idx="-1"  idxOne="10"  idxTwo="19"  coef="-.3348"/><qTerm  idx="-1"  idxOne="11"  idxTwo="14"  coef="-1.8948"/><qTerm  idx="-1"  idxOne="11"  idxTwo="16"  coef=".2378"/><qTerm  idx="-1"  idxOne="11"  idxTwo="17"  coef="-.4675"/><qTerm  idx="-1"  idxOne="13"  idxTwo="17"  coef="-.4439"/><qTerm  idx="-1"  idxOne="14"  idxTwo="15"  coef=".9158"/><qTerm  idx="-1"  idxOne="14"  idxTwo="16"  coef=".5493"/><qTerm  idx="-1"  idxOne="15"  idxTwo="15"  coef="-1.209"/><qTerm  idx="-1"  idxOne="15"  idxTwo="17"  coef="1.778"/><qTerm  idx="-1"  idxOne="15"  idxTwo="19"  coef="-3.55e-2"/><qTerm  idx="-1"  idxOne="18"  idxTwo="19"  coef="-.6363"/><qTerm  idx="-1"  idxOne="19"  idxTwo="19"  coef="1.8811"/></quadraticCoefficients></instanceData></osil>
